<?xml version = "1.0" standalone="yes"?>
<!-- This file has been generated by DOcplex version 2.23.222  -->
<CPLEXSolution version="1.0">
 <header
   problemName="CVRP"
   objectiveValue="19072.3"
  />
 <variables>
  <variable name="x_0_1" index="0" value="1.00000"/>
  <variable name="x_0_2" index="1" value="1.00000"/>
  <variable name="x_0_3" index="2" value="1.00000"/>
  <variable name="x_0_4" index="3" value="1.00000"/>
  <variable name="x_0_9" index="8" value="1.00000"/>
  <variable name="x_0_12" index="11" value="1.00000"/>
  <variable name="x_0_13" index="12" value="1.00000"/>
  <variable name="x_0_15" index="14" value="1.00000"/>
  <variable name="x_0_16" index="15" value="1.00000"/>
  <variable name="x_0_18" index="17" value="1.00000"/>
  <variable name="x_0_20" index="19" value="1.00000"/>
  <variable name="x_0_22" index="21" value="1.00000"/>
  <variable name="x_0_23" index="22" value="1.00000"/>
  <variable name="x_0_25" index="24" value="1.00000"/>
  <variable name="x_0_26" index="25" value="1.00000"/>
  <variable name="x_1_0" index="27" value="1.00000"/>
  <variable name="x_2_0" index="54" value="1.00000"/>
  <variable name="x_3_7" index="87" value="1.00000"/>
  <variable name="x_4_5" index="112" value="1.00000"/>
  <variable name="x_5_0" index="135" value="1.00000"/>
  <variable name="x_6_24" index="185" value="1.00000"/>
  <variable name="x_7_0" index="189" value="1.00000"/>
  <variable name="x_8_0" index="216" value="1.00000"/>
  <variable name="x_9_6" index="249" value="1.00000"/>
  <variable name="x_10_0" index="270" value="1.00000"/>
  <variable name="x_11_0" index="297" value="1.00000"/>
  <variable name="x_12_17" index="340" value="1.00000"/>
  <variable name="x_13_0" index="351" value="1.00000"/>
  <variable name="x_14_11" index="389" value="1.00000"/>
  <variable name="x_15_0" index="405" value="1.00000"/>
  <variable name="x_16_14" index="446" value="1.00000"/>
  <variable name="x_17_0" index="459" value="1.00000"/>
  <variable name="x_18_27" index="512" value="1.00000"/>
  <variable name="x_19_0" index="513" value="1.00000"/>
  <variable name="x_20_19" index="559" value="1.00000"/>
  <variable name="x_21_0" index="567" value="1.00000"/>
  <variable name="x_22_8" index="602" value="1.00000"/>
  <variable name="x_23_0" index="621" value="1.00000"/>
  <variable name="x_24_0" index="648" value="1.00000"/>
  <variable name="x_25_10" index="685" value="1.00000"/>
  <variable name="x_26_0" index="702" value="1.00000"/>
  <variable name="x_27_21" index="750" value="1.00000"/>
  <variable name="u_1" index="756" value="72.00000"/>
  <variable name="u_2" index="757" value="29.00000"/>
  <variable name="u_3" index="758" value="68.00000"/>
  <variable name="u_4" index="759" value="32.00000"/>
  <variable name="u_5" index="760" value="73.00000"/>
  <variable name="u_6" index="761" value="54.00000"/>
  <variable name="u_7" index="762" value="73.00000"/>
  <variable name="u_8" index="763" value="59.00000"/>
  <variable name="u_9" index="764" value="8.00000"/>
  <variable name="u_10" index="765" value="73.00000"/>
  <variable name="u_11" index="766" value="73.00000"/>
  <variable name="u_12" index="767" value="18.00000"/>
  <variable name="u_13" index="768" value="48.00000"/>
  <variable name="u_14" index="769" value="26.00000"/>
  <variable name="u_15" index="770" value="73.00000"/>
  <variable name="u_16" index="771" value="11.00000"/>
  <variable name="u_17" index="772" value="64.00000"/>
  <variable name="u_18" index="773" value="31.00000"/>
  <variable name="u_19" index="774" value="73.00000"/>
  <variable name="u_20" index="775" value="37.00000"/>
  <variable name="u_21" index="776" value="73.00000"/>
  <variable name="u_22" index="777" value="34.00000"/>
  <variable name="u_23" index="778" value="63.00000"/>
  <variable name="u_24" index="779" value="73.00000"/>
  <variable name="u_25" index="780" value="28.00000"/>
  <variable name="u_26" index="781" value="48.00000"/>
  <variable name="u_27" index="782" value="40.00000"/>
 </variables>
</CPLEXSolution>
